c preprocessed version of celar04-wpp, 62 vertices, 316 edges
p td 62 316
1 0
0 2
0 50
55 0
51 0
1 2
1 50
55 1
51 1
2 3
2 50
2 49
48 2
2 14
2 15
2 36
4 3
3 49
48 3
47 3
52 3
51 3
4 5
48 4
4 21
4 25
47 4
52 4
6 5
17 5
20 5
5 21
5 25
6 7
6 22
6 23
6 26
8 7
22 7
7 23
46 7
9 8
13 8
8 29
8 30
8 23
8 44
46 8
10 9
18 9
9 13
9 16
9 38
9 27
9 24
9 29
9 35
9 30
9 31
9 23
9 44
9 45
9 42
9 32
46 9
10 11
10 12
10 13
10 27
10 35
10 32
10 34
10 41
10 44
10 42
10 40
10 43
10 39
10 18
12 11
18 11
15 11
11 16
11 13
11 38
11 32
11 31
11 34
11 36
11 40
11 39
11 19
11 27
11 17
11 20
11 35
11 30
11 26
11 42
11 43
12 13
12 18
12 19
12 27
12 35
12 31
12 41
12 42
12 40
12 43
12 32
12 34
12 33
12 39
14 13
15 13
18 13
13 19
13 38
13 27
13 28
13 20
13 24
13 29
13 35
13 30
13 32
13 31
13 23
13 34
13 41
13 26
13 44
13 42
13 40
13 43
13 39
13 36
13 33
14 15
14 16
14 17
14 36
14 43
14 37
14 40
15 16
15 36
15 37
15 40
16 17
16 19
16 38
16 20
16 36
16 26
16 37
18 17
17 21
19 17
37 17
38 17
17 20
17 39
18 19
18 38
18 27
18 28
18 20
18 32
18 34
18 41
18 42
18 40
18 39
18 35
18 43
19 20
19 38
19 37
19 39
19 41
20 21
37 20
38 20
20 39
22 21
21 25
22 23
22 26
24 23
29 23
30 23
23 44
25 24
25 26
27 26
29 26
26 45
27 28
27 29
27 34
27 33
27 45
27 39
29 30
30 31
30 44
32 31
31 40
31 39
32 33
32 40
32 39
34 33
33 39
35 34
34 42
34 43
34 41
35 36
35 41
35 42
35 43
37 36
36 41
36 42
36 39
36 40
38 37
38 39
38 41
40 39
41 42
41 43
42 43
44 45
47 46
53 46
47 48
53 47
52 47
48 49
52 48
49 50
51 49
51 50
51 52
51 53
55 51
54 51
52 53
54 52
54 53
55 54
56 11
56 12
56 14
56 18
56 13
56 16
56 19
56 38
56 27
56 57
56 24
56 34
56 41
56 58
56 59
56 60
56 42
56 37
57 9
57 13
57 58
57 24
57 25
57 59
57 60
58 13
58 18
58 24
58 28
58 59
58 60
59 18
59 24
59 60
59 28
60 10
60 12
60 13
60 17
60 18
60 24
60 20
60 19
60 38
60 37
60 35
60 27
60 31
60 34
60 41
60 42
60 43
61 56
61 57
61 58
61 59
61 60
61 11
61 55
61 54
61 51
